************************************************************************
file with basedata            : j10.bas
initial value random generator: -
************************************************************************
projects                      :  1
jobs (incl. supersource/sink ):  12
horizon                       :  35
RESOURCES
  - renewable                 :  2   R
  - nonrenewable              :  0   N
  - doubly constrained        :  0   D
************************************************************************
PROJECT INFORMATION:
pronr.  #jobs rel.date duedate tardcost  MPM-Time
    1     10      0       38       26       38
************************************************************************
PRECEDENCE RELATIONS:
jobnr.    #modes  #successors   successors
   1        1          3           2   3   4
   2        1          2           5   6
   3        1          2           10  11
   4        1          1           9
   5        1          2           7   8
   6        1          2          10   11
   7        1          2           9   10
   8        1          1           9 
   9        1          1          12
  10        1          1          12
  11        1          1          12
  12        1          0        
************************************************************************
REQUESTS/DURATIONS:
jobnr. mode duration  R 1  R 2
------------------------------------------------------------------------
  1      1     0       0    0
  2      1     3       5    1
  3      1     2       0    4
  4      1     5       1    4
  5      1     4       1    3
  6      1     2       3    2
  7      1     3       3    1
  8      1     4       2    4
  9      1     2       4    0
 10      1     4       5    2
 11      1     6       2    5
 12      1     0       0    0
************************************************************************
RESOURCEAVAILABILITIES:
  R 1  R 2
   6   8
************************************************************************
